23
5
30  50 -1
70  50 -1
50  80 -1
70  90 -1
20  90 -1
10  10 -1
90  10 -1
20  20 0
20  40 0
40  40 0
40  20 0
60  20 1
60  40 1
80  40 1
80  20 1
20  60 2
20  80 2
40  80 2
40  60 2
60  60 3
60  80 3
80  80 3
80  60 3
0 1 0 0 0 0 0 0 1 0 0 1 0 0 0 1 0 0 1 0 0 0 0 
1 0 0 0 0 0 0 0 0 0 1 0 0 1 0 0 0 1 0 1 0 0 0 
0 0 0 1 1 0 0 0 0 0 0 0 0 0 0 0 0 0 1 1 0 0 0 
0 0 1 0 1 0 0 0 0 0 0 0 0 0 0 0 0 0 1 0 1 1 0 
0 0 1 1 0 1 0 0 0 0 0 0 0 0 0 1 0 1 0 0 0 0 0 
0 0 0 0 1 0 1 0 1 0 1 0 0 0 0 0 0 0 0 0 0 0 0 
0 0 0 0 0 1 0 0 0 0 0 1 0 1 0 0 0 0 0 0 0 1 0 
0 0 0 0 0 0 0 0 0 0 0 0 0 0 0 0 0 0 0 0 0 0 0 
1 0 0 0 0 1 0 0 0 0 0 0 0 0 0 0 0 0 1 0 1 0 0 
0 0 0 0 0 0 0 0 0 0 0 0 0 0 0 0 0 0 0 0 0 0 0 
0 1 0 0 0 1 0 0 0 0 0 0 0 0 0 0 0 0 0 0 0 0 0 
1 0 0 0 0 0 1 0 0 0 0 0 0 0 0 0 0 0 0 0 0 0 0 
0 0 0 0 0 0 0 0 0 0 0 0 0 0 0 0 0 0 0 0 0 0 0 
0 1 0 0 0 0 1 0 0 0 0 0 0 0 0 0 0 1 0 1 0 0 0 
0 0 0 0 0 0 0 0 0 0 0 0 0 0 0 0 0 0 0 0 0 0 0 
1 0 0 0 1 0 0 0 0 0 0 0 0 0 0 0 0 0 0 0 0 0 0 
0 0 0 0 0 0 0 0 0 0 0 0 0 0 0 0 0 0 0 0 0 0 0 
0 1 0 0 1 0 0 0 0 0 0 0 0 1 0 0 0 0 0 0 0 0 0 
1 0 1 1 0 0 0 0 1 0 0 0 0 0 0 0 0 0 0 0 0 0 0 
0 1 1 0 0 0 0 0 0 0 0 0 0 1 0 0 0 0 0 0 1 0 0 
0 0 0 1 0 0 0 0 1 0 0 0 0 0 0 0 0 0 0 1 0 0 0 
0 0 0 1 0 0 1 0 0 0 0 0 0 0 0 0 0 0 0 0 0 0 0 
0 0 0 0 0 0 0 0 0 0 0 0 0 0 0 0 0 0 0 0 0 0 0 
1  1  0  0  0  0  0  0  1  1  0  1  1  1  0  1  0  0  1  1  1  0  1
1  1  0  0  0  0  0  0  1  1  1  0  1  1  0  1  0  1  1  1  0  0  1
0  0  1  1  1  0  0  0  0  1  1  1  1  0  0  0  1  1  1  1  1  1  0
0  0  1  1  1  0  0  0  0  0  0  0  0  0  0  0  1  1  1  0  1  1  0
0  0  1  1  1  1  0  1  1  0  0  0  0  0  0  1  1  1  0  0  1  1  0
0  0  0  0  1  1  1  1  1  0  1  1  0  0  1  1  1  0  0  0  0  0  0
0  0  0  0  0  1  1  1  0  0  1  1  0  1  1  0  0  0  0  0  0  1  1
0  0  0  0  1  1  1  1  1  0  1  1  0  0  1  1  1  0  0  0  0  0  0
1  1  0  0  1  1  0  1  1  1  0  0  1  1  0  1  1  0  1  1  1  0  1
1  1  1  0  0  0  0  0  1  1  1  1  1  1  0  1  0  1  1  1  1  0  1
0  1  1  0  0  1  1  1  0  1  1  1  1  0  1  0  0  1  1  1  1  0  1
1  0  1  0  0  1  1  1  0  1  1  1  1  0  1  1  0  1  1  1  1  0  0
1  1  1  0  0  0  0  0  1  1  1  1  1  1  0  1  0  1  1  1  1  0  1
1  1  0  0  0  0  1  0  1  1  0  0  1  1  1  1  0  1  1  1  0  1  1
0  0  0  0  0  1  1  1  0  0  1  1  0  1  1  0  0  0  0  0  0  1  1
1  1  0  0  1  1  0  1  1  1  0  1  1  1  0  1  1  0  1  1  0  0  1
0  0  1  1  1  1  0  1  1  0  0  0  0  0  0  1  1  1  0  0  1  1  0
0  1  1  1  1  0  0  0  0  1  1  1  1  1  0  0  1  1  1  1  1  1  0
1  1  1  1  0  0  0  0  1  1  1  1  1  1  0  1  0  1  1  1  1  0  1
1  1  1  0  0  0  0  0  1  1  1  1  1  1  0  1  0  1  1  1  1  0  1
1  0  1  1  1  0  0  0  1  1  1  1  1  0  0  0  1  1  1  1  1  1  0
0  0  1  1  1  0  1  0  0  0  0  0  0  1  1  0  1  1  0  0  1  1  1
1  1  0  0  0  0  1  0  1  1  1  0  1  1  1  1  0  0  1  1  0  1  1
